100
466 83
77 75
330 437
220 413
373 30
91 11
6 271
486 285
309 146
355 285
474 256
465 352
493 295
96 451
108 357
224 39
183 432
414 456
130 66
48 377
383 35
290 465
18 45
197 425
172 115
9 162
322 431
32 375
161 433
407 212
316 252
244 438
227 80
276 146
139 146
33 39
92 262
317 72
467 421
472 103
496 85
113 443
401 324
259 418
169 145
65 84
58 86
409 136
214 225
196 140
88 259
255 297
79 458
424 216
400 385
469 193
341 483
208 496
61 227
306 481
363 454
51 70
217 305
365 373
341 64
225 299
497 448
381 50
206 293
219 178
475 330
253 320
36 369
161 6
408 487
223 486
427 290
319 471
227 76
18 179
481 173
283 466
122 432
232 199
137 99
173 163
163 201
43 424
311 33
242 73
442 142
98 372
487 234
249 74
248 199
323 424
26 80
436 156
414 75
236 162
